c colouring generated by benchmark framework
p edge 161 295
v 1 0
v 2 2
v 3 0
v 4 1
v 5 0
v 6 2
v 7 0
v 8 1
v 9 1
v 10 2
v 11 2
v 12 1
v 13 2
v 14 0
v 15 1
v 16 1
v 17 0
v 18 1
v 19 2
v 20 0
v 21 2
v 22 0
v 23 1
v 24 1
v 25 0
v 26 0
v 27 1
v 28 0
v 29 2
v 30 0
v 31 0
v 32 1
v 33 1
v 34 1
v 35 2
v 36 2
v 37 0
v 38 2
v 39 0
v 40 2
v 41 2
v 42 2
v 43 0
v 44 1
v 45 2
v 46 1
v 47 1
v 48 0
v 49 1
v 50 0
v 51 1
v 52 0
v 53 1
v 54 1
v 55 0
v 56 2
v 57 0
v 58 0
v 59 0
v 60 0
v 61 0
v 62 2
v 63 1
v 64 2
v 65 1
v 66 1
v 67 0
v 68 0
v 69 2
v 70 0
v 71 1
v 72 2
v 73 1
v 74 1
v 75 0
v 76 1
v 77 2
v 78 2
v 79 1
v 80 1
v 81 1
v 82 1
v 83 1
v 84 1
v 85 1
v 86 0
v 87 2
v 88 2
v 89 1
v 90 2
v 91 1
v 92 2
v 93 0
v 94 1
v 95 0
v 96 0
v 97 0
v 98 2
v 99 1
v 100 0
v 101 0
v 102 1
v 103 1
v 104 2
v 105 0
v 106 2
v 107 1
v 108 0
v 109 2
v 110 0
v 111 1
v 112 0
v 113 2
v 114 0
v 115 0
v 116 1
v 117 0
v 118 2
v 119 1
v 120 2
v 121 2
v 122 1
v 123 2
v 124 0
v 125 0
v 126 1
v 127 0
v 128 1
v 129 0
v 130 1
v 131 0
v 132 2
v 133 2
v 134 2
v 135 2
v 136 2
v 137 2
v 138 0
v 139 0
v 140 1
v 141 2
v 142 2
v 143 2
v 144 0
v 145 2
v 146 1
v 147 0
v 148 2
v 149 1
v 150 2
v 151 2
v 152 1
v 153 0
v 154 0
v 155 0
v 156 0
v 157 0
v 158 1
v 159 1
v 160 1
v 161 0
